% seed = 7489139

mint = 51;
% maxt = 119;

nActs = 22;
dur = [0,9,6,9,6,1,8,9,8,2,9,1,3,7,3,9,3,4,10,7,5,0];

nSkills = 4;
sreq = [| 0,0,0,0,
	| 3,0,0,1,
	| 0,2,0,3,
	| 2,2,2,2,
	| 3,0,2,2,
	| 2,3,2,2,
	| 3,0,3,0,
	| 0,3,3,0,
	| 3,0,0,1,
	| 3,3,2,0,
	| 1,3,0,2,
	| 1,1,1,2,
	| 3,2,1,0,
	| 2,1,2,1,
	| 1,2,3,1,
	| 2,0,3,2,
	| 0,3,0,3,
	| 1,3,2,1,
	| 2,3,0,0,
	| 0,0,2,3,
	| 1,0,0,2,
	| 0,0,0,0, |];

nResources = 10;
mastery = [| true,false,true,false,
	| true,false,true,true,
	| true,false,false,true,
	| false,true,true,true,
	| true,false,false,false,
	| false,true,false,false,
	| false,false,true,true,
	| false,false,true,false,
	| true,false,false,false,
	| true,true,false,true, |];

nPrecs = 31;
pred = [1,1,1,2,3,3,4,4,5,6,6,6,7,7,7,8,8,9,10,11,11,12,13,14,15,16,17,18,19,20,21];
succ = [2,3,4,16,5,7,6,15,11,9,11,20,10,12,8,9,20,14,11,17,18,13,14,17,17,21,19,19,22,22,22];

nUnrels = 115;
unpred = [2,2,2,2,2,2,2,2,2,2,2,2,2,2,2,2,2,3,3,3,3,3,4,4,4,4,4,4,4,4,5,5,5,5,5,5,5,5,5,5,5,5,6,6,6,6,6,6,6,6,7,7,7,8,8,8,8,8,8,8,8,9,9,9,9,9,9,9,9,9,10,10,10,10,10,10,10,11,11,11,11,11,11,11,12,12,12,12,12,13,13,13,13,13,14,14,14,14,14,15,15,15,15,16,16,16,16,17,17,17,18,18,19,19,20];
unsucc = [3,4,5,6,7,8,9,10,11,12,13,14,15,17,18,19,20,4,6,15,16,21,5,7,8,10,12,13,16,21,6,7,8,9,10,12,13,14,15,16,20,21,7,8,10,12,13,15,16,21,15,16,21,10,11,12,13,15,16,18,21,10,11,12,13,15,16,18,20,21,12,13,14,15,16,20,21,12,13,14,15,16,20,21,15,16,18,20,21,15,16,18,20,21,15,16,18,20,21,16,18,20,21,17,18,19,20,18,20,21,20,21,20,21,21];

USEFUL_RES = [{},
	{1,2,3,4,5,7,9,10},
	{2,3,4,6,7,10},
	{1,2,3,4,5,6,7,8,9,10},
	{1,2,3,4,5,7,8,9,10},
	{1,2,3,4,5,6,7,8,9,10},
	{1,2,3,4,5,7,8,9,10},
	{1,2,4,6,7,8,10},
	{1,2,3,4,5,7,9,10},
	{1,2,3,4,5,6,7,8,9,10},
	{1,2,3,4,5,6,7,9,10},
	{1,2,3,4,5,6,7,8,9,10},
	{1,2,3,4,5,6,7,8,9,10},
	{1,2,3,4,5,6,7,8,9,10},
	{1,2,3,4,5,6,7,8,9,10},
	{1,2,3,4,5,7,8,9,10},
	{2,3,4,6,7,10},
	{1,2,3,4,5,6,7,8,9,10},
	{1,2,3,4,5,6,9,10},
	{1,2,3,4,7,8,10},
	{1,2,3,4,5,7,9,10},
	{}];

POTENTIAL_ACT = [{2,4,5,6,7,8,9,10,11,12,13,14,15,16,18,19,20,21},
	{2,3,4,5,6,7,8,9,10,11,12,13,14,15,16,17,18,19,20,21},
	{2,3,4,5,6,7,9,10,11,12,13,14,15,16,17,18,19,20,21},
	{2,3,4,5,6,7,8,9,10,11,12,13,14,15,16,17,18,19,20,21},
	{2,4,5,6,7,9,10,11,12,13,14,15,16,18,19,21},
	{3,4,6,8,10,11,12,13,14,15,17,18,19},
	{2,3,4,5,6,7,8,9,10,11,12,13,14,15,16,17,18,20,21},
	{4,5,6,7,8,10,12,13,14,15,16,18,20},
	{2,4,5,6,7,9,10,11,12,13,14,15,16,18,19,21},
	{2,3,4,5,6,7,8,9,10,11,12,13,14,15,16,17,18,19,20,21}];
